\ENCODING=ISO-8859-1
\Problem name: IloCplex

Maximize
 obj: 1553 vnp1 - 168 (π,ρ)0↑e1 - 246 (π,ρ)1↑e1
      - 99 (π,ρ)2↑e2 - 32 (π,ρ)3↑e4 + 1285 vnp2
      - 46 (π,ρ)4↑e6 - 46 (π,ρ)5↑e6
      - 46 (π,ρ)6↑e6 - 40 (π,ρ)7↑e6
      - 40 (π,ρ)8↑e6 - 40 (π,ρ)9↑e6
      - 40 (π,ρ)10↑e6 - 50 (π,ρ)11↑e6
      - 50 (π,ρ)12↑e6 - 50 (π,ρ)13↑e6
      - 50 (π,ρ)14↑e6 - 51 (π,ρ)15↑e6
      - 51 (π,ρ)16↑e6 - 51 (π,ρ)17↑e6
      - 14 (π,ρ)18↑e7 + 1993 vnp3 - 398 (π,ρ)19↑e9
      - 402 (π,ρ)20↑e9 - 403 (π,ρ)21↑e9
      - 404 (π,ρ)22↑e9 - 410 (π,ρ)23↑e9
      - 413 (π,ρ)24↑e9 - 225 (π,ρ)25↑e9
      - 225 (π,ρ)26↑e9 - 493 (π,ρ)27↑e9
      - 497 (π,ρ)28↑e9 - 498 (π,ρ)29↑e9
      - 499 (π,ρ)30↑e9 - 93 (π,ρ)31↑e11
      - 111 (π,ρ)32↑e11 - 70 (π,ρ)33↑e12
      - 70 (π,ρ)34↑e12 - 110 (π,ρ)35↑e12
      - 110 (π,ρ)36↑e12 - 122 (π,ρ)37↑e12
      - 90 (π,ρ)38↑e12 - 90 (π,ρ)39↑e12
      - 90 (π,ρ)40↑e12 + 2627 vnp4 - 33 (π,ρ)41↑e14
      - 108 (π,ρ)42↑e14 - 108 (π,ρ)43↑e14
      - 85 (π,ρ)44↑e15 - 120 (π,ρ)45↑e17
      - 120 (π,ρ)46↑e17
Subject To
 _EmbdConstr_vnp1e1#0:   vnp1 - (π,ρ)0↑e1 - (π,ρ)1↑e1
                          = 0
 _EmbdConstr_vnp1e2#1:   vnp1 - (π,ρ)2↑e2  = 0
 _EmbdConstr_vnp1e3#2:   vnp1  = 0
 _EmbdConstr_vnp1e4#3:   vnp1 - (π,ρ)3↑e4  = 0
 _EmbdConstr_vnp2e5#4:   vnp2  = 0
 _EmbdConstr_vnp2e6#5:   vnp2 - (π,ρ)4↑e6 - (π,ρ)5↑e6
                         - (π,ρ)6↑e6 - (π,ρ)7↑e6
                         - (π,ρ)8↑e6 - (π,ρ)9↑e6
                         - (π,ρ)10↑e6 - (π,ρ)11↑e6
                         - (π,ρ)12↑e6 - (π,ρ)13↑e6
                         - (π,ρ)14↑e6 - (π,ρ)15↑e6
                         - (π,ρ)16↑e6 - (π,ρ)17↑e6  = 0
 _EmbdConstr_vnp2e7#6:   vnp2 - (π,ρ)18↑e7  = 0
 _EmbdConstr_vnp2e8#7:   vnp2  = 0
 _EmbdConstr_vnp3e9#8:   vnp3 - (π,ρ)19↑e9 - (π,ρ)20↑e9
                         - (π,ρ)21↑e9 - (π,ρ)22↑e9
                         - (π,ρ)23↑e9 - (π,ρ)24↑e9
                         - (π,ρ)25↑e9 - (π,ρ)26↑e9
                         - (π,ρ)27↑e9 - (π,ρ)28↑e9
                         - (π,ρ)29↑e9 - (π,ρ)30↑e9  = 0
 _EmbdConstr_vnp3e10#9:  vnp3  = 0
 _EmbdConstr_vnp3e11#10: vnp3 - (π,ρ)31↑e11 - (π,ρ)32↑e11
                          = 0
 _EmbdConstr_vnp3e12#11: vnp3 - (π,ρ)33↑e12 - (π,ρ)34↑e12
                         - (π,ρ)35↑e12 - (π,ρ)36↑e12
                         - (π,ρ)37↑e12 - (π,ρ)38↑e12
                         - (π,ρ)39↑e12 - (π,ρ)40↑e12  = 0
 _EmbdConstr_vnp4e13#12: vnp4  = 0
 _EmbdConstr_vnp4e14#13: vnp4 - (π,ρ)41↑e14 - (π,ρ)42↑e14
                         - (π,ρ)43↑e14  = 0
 _EmbdConstr_vnp4e15#14: vnp4 - (π,ρ)44↑e15  = 0
 _EmbdConstr_vnp4e16#15: vnp4  = 0
 _EmbdConstr_vnp4e17#16: vnp4 - (π,ρ)45↑e17 - (π,ρ)46↑e17
                          = 0
 _EmbdConstr_vnp4e18#17: vnp4  = 0
 BwCapConstr_slink1#18:  3 (π,ρ)2↑e2 <= 20
 BwCapConstr_slink2#19:  <= 20
 BwCapConstr_slink3#20:  3 (π,ρ)0↑e1 + 3 (π,ρ)1↑e1
                         + 5 (π,ρ)23↑e9 + 5 (π,ρ)25↑e9
                         + 5 (π,ρ)26↑e9 <= 13
 BwCapConstr_slink5#21:  3 (π,ρ)2↑e2 + 2 (π,ρ)3↑e4
                         + 5 (π,ρ)21↑e9 + 5 (π,ρ)26↑e9
                         + 5 (π,ρ)29↑e9 + 3 (π,ρ)31↑e11
                         <= 14
 BwCapConstr_slink6#22:  5 (π,ρ)20↑e9 + 5 (π,ρ)28↑e9
                         <= 13
 BwCapConstr_slink7#23:  3 (π,ρ)0↑e1 + 3 (π,ρ)1↑e1
                         + 5 (π,ρ)19↑e9 + 5 (π,ρ)20↑e9
                         + 5 (π,ρ)22↑e9 + 5 (π,ρ)24↑e9
                         + 5 (π,ρ)25↑e9 + 5 (π,ρ)27↑e9
                         + 5 (π,ρ)28↑e9 + 5 (π,ρ)30↑e9
                         + 3 (π,ρ)32↑e11 <= 15
 BwCapConstr_slink8#24:  (π,ρ)5↑e6 + (π,ρ)10↑e6
                         + (π,ρ)16↑e6 + 5 (π,ρ)19↑e9
                         + 5 (π,ρ)20↑e9 + 5 (π,ρ)21↑e9
                         + 5 (π,ρ)22↑e9 + 5 (π,ρ)23↑e9
                         + 5 (π,ρ)24↑e9 + 5 (π,ρ)27↑e9
                         + 5 (π,ρ)28↑e9 + 5 (π,ρ)29↑e9
                         + 5 (π,ρ)30↑e9 <= 3
 BwCapConstr_slink9#25:  (π,ρ)8↑e6 + (π,ρ)12↑e6
                         + (π,ρ)18↑e7 + (π,ρ)24↑e9 <= 15
 BwCapConstr_slink10#26: 3 (π,ρ)1↑e1 + (π,ρ)11↑e6
                         + (π,ρ)12↑e6 + (π,ρ)13↑e6
                         + (π,ρ)14↑e6 <= 20
 BwCapConstr_slink11#27: 3 (π,ρ)0↑e1 + (π,ρ)11↑e6
                         + (π,ρ)12↑e6 + (π,ρ)13↑e6
                         + (π,ρ)14↑e6 + 5 (π,ρ)23↑e9
                         + 5 (π,ρ)25↑e9 + 5 (π,ρ)26↑e9
                         <= 13
 BwCapConstr_slink12#28: 2 (π,ρ)33↑e12 + 2 (π,ρ)34↑e12
                         + 2 (π,ρ)39↑e12 <= 10
 BwCapConstr_slink13#29: 5 (π,ρ)19↑e9 + 5 (π,ρ)22↑e9
                         + 5 (π,ρ)27↑e9 + 5 (π,ρ)30↑e9
                         + 3 (π,ρ)32↑e11 <= 14
 BwCapConstr_slink14#30: 5 (π,ρ)19↑e9 + 5 (π,ρ)27↑e9
                         + 3 (π,ρ)31↑e11 <= 14
 BwCapConstr_slink15#31: (π,ρ)19↑e9 + 5 (π,ρ)20↑e9
                         + 5 (π,ρ)21↑e9 + (π,ρ)27↑e9
                         + 5 (π,ρ)28↑e9 + 5 (π,ρ)29↑e9
                         <= 13
 BwCapConstr_slink16#32: 5 (π,ρ)22↑e9 + 5 (π,ρ)30↑e9
                         <= 17
 BwCapConstr_slink20#33: 3 (π,ρ)31↑e11 + 3 (π,ρ)32↑e11
                         + 2 (π,ρ)36↑e12 + 2 (π,ρ)40↑e12
                         <= 13
 BwCapConstr_slink21#34: 2 (π,ρ)33↑e12 + 2 (π,ρ)34↑e12
                         + 2 (π,ρ)35↑e12 + 2 (π,ρ)37↑e12
                         + 2 (π,ρ)38↑e12 + 3 (π,ρ)42↑e14
                         + 3 (π,ρ)43↑e14 <= 8
 BwCapConstr_slink22#35: (π,ρ)4↑e6 + (π,ρ)9↑e6
                         + (π,ρ)13↑e6 + (π,ρ)17↑e6
                         + 2 (π,ρ)35↑e12 + 2 (π,ρ)36↑e12
                         + 2 (π,ρ)37↑e12 + 3 (π,ρ)45↑e17
                         + 3 (π,ρ)46↑e17 <= 14
 BwCapConstr_slink23#36: 2 (π,ρ)38↑e12 + 2 (π,ρ)39↑e12
                         + 2 (π,ρ)40↑e12 + 3 (π,ρ)42↑e14
                         + 3 (π,ρ)43↑e14 + 3 (π,ρ)45↑e17
                         + 3 (π,ρ)46↑e17 <= 18
 BwCapConstr_slink24#37: (π,ρ)6↑e6 + 3 (π,ρ)42↑e14
                         + 5 (π,ρ)44↑e15 <= 13
 BwCapConstr_slink25#38: (π,ρ)4↑e6 + (π,ρ)5↑e6
                         + (π,ρ)6↑e6 + (π,ρ)7↑e6
                         + (π,ρ)11↑e6 + (π,ρ)15↑e6
                         + (π,ρ)16↑e6 + (π,ρ)17↑e6
                         + 5 (π,ρ)23↑e9 + 5 (π,ρ)24↑e9
                         + 5 (π,ρ)27↑e9 + 5 (π,ρ)28↑e9
                         + 5 (π,ρ)29↑e9 + 5 (π,ρ)30↑e9
                         + 2 (π,ρ)37↑e12 + 5 (π,ρ)44↑e15
                         <= 15
 BwCapConstr_slink26#39: 3 (π,ρ)1↑e1 + (π,ρ)7↑e6
                         + (π,ρ)8↑e6 + (π,ρ)9↑e6
                         + (π,ρ)10↑e6 + (π,ρ)14↑e6
                         + (π,ρ)15↑e6 + 5 (π,ρ)19↑e9
                         + 5 (π,ρ)20↑e9 + 5 (π,ρ)21↑e9
                         + 5 (π,ρ)22↑e9 + (π,ρ)24↑e9
                         + 2 (π,ρ)35↑e12 + 2 (π,ρ)36↑e12
                         + 3 (π,ρ)45↑e17 + 3 (π,ρ)46↑e17
                         <= 16
 BwCapConstr_slink27#40: 5 (π,ρ)27↑e9 + 5 (π,ρ)28↑e9
                         + 5 (π,ρ)29↑e9 + 5 (π,ρ)30↑e9
                         <= 13
 BwCapConstr_slink28#41: 2 (π,ρ)38↑e12 + 2 (π,ρ)39↑e12
                         + 2 (π,ρ)40↑e12 + (π,ρ)41↑e14
                         + 3 (π,ρ)43↑e14 <= 11
 BwCapConstr_slink30#42: 3 (π,ρ)41↑e14 <= 19
 BwCapConstr_slink31#43: (π,ρ)20↑e9 + (π,ρ)21↑e9
                         + (π,ρ)28↑e9 + (π,ρ)29↑e9
                         + 2 (π,ρ)33↑e12 + 2 (π,ρ)34↑e12
                         <= 15
 BwCapConstr_slink33#44: 5 (π,ρ)19↑e9 + (π,ρ)20↑e9
                         + 5 (π,ρ)21↑e9 + 2 (π,ρ)22↑e9
                         + 5 (π,ρ)27↑e9 + (π,ρ)28↑e9
                         + 5 (π,ρ)29↑e9 + 2 (π,ρ)30↑e9
                         <= 17
 BwCapConstr_slink34#45: <= 16
 BwCapConstr_slink35#46: 3 (π,ρ)41↑e14 + 3 (π,ρ)42↑e14
                         + 3 (π,ρ)43↑e14 <= 18
 BwCapConstr_slink36#47: <= 14
 BwCapConstr_slink37#48: (π,ρ)15↑e6 + (π,ρ)16↑e6
                         + (π,ρ)17↑e6 <= 15
 BwCapConstr_slink38#49: (π,ρ)4↑e6 + (π,ρ)5↑e6
                         + (π,ρ)6↑e6 + 5 (π,ρ)23↑e9
                         + 5 (π,ρ)24↑e9 + 2 (π,ρ)37↑e12
                         + 2 (π,ρ)38↑e12 + 2 (π,ρ)39↑e12
                         + 2 (π,ρ)40↑e12 <= 20
 BwCapConstr_slink39#50: (π,ρ)15↑e6 + (π,ρ)16↑e6
                         + (π,ρ)17↑e6 + 5 (π,ρ)19↑e9
                         + 5 (π,ρ)20↑e9 + 5 (π,ρ)21↑e9
                         + 5 (π,ρ)22↑e9 + 5 (π,ρ)27↑e9
                         + 5 (π,ρ)28↑e9 + 5 (π,ρ)29↑e9
                         + 5 (π,ρ)30↑e9 + 2 (π,ρ)33↑e12
                         + 2 (π,ρ)34↑e12 <= 20
 BwCapConstr_slink40#51: <= 16
 BwCapConstr_slink41#52: (π,ρ)7↑e6 + (π,ρ)8↑e6
                         + (π,ρ)9↑e6 + (π,ρ)10↑e6
                         + (π,ρ)11↑e6 + (π,ρ)12↑e6
                         + (π,ρ)13↑e6 + (π,ρ)14↑e6
                         + 5 (π,ρ)19↑e9 + 5 (π,ρ)20↑e9
                         + 5 (π,ρ)21↑e9 + 5 (π,ρ)22↑e9
                         + 5 (π,ρ)23↑e9 + 5 (π,ρ)24↑e9
                         + 5 (π,ρ)25↑e9 + 5 (π,ρ)26↑e9
                         + 5 (π,ρ)27↑e9 + 5 (π,ρ)28↑e9
                         + 5 (π,ρ)29↑e9 + 5 (π,ρ)30↑e9
                         + 2 (π,ρ)35↑e12 + 2 (π,ρ)36↑e12
                         <= 20
 BwCapConstr_slink42#53: 3 (π,ρ)0↑e1 + 3 (π,ρ)1↑e1 <= 16
Bounds
 0 <= vnp1 <= 1
 0 <= (π,ρ)0↑e1 <= 1
 0 <= (π,ρ)1↑e1 <= 1
 0 <= (π,ρ)2↑e2 <= 1
 0 <= (π,ρ)3↑e4 <= 1
 0 <= vnp2 <= 1
 0 <= (π,ρ)4↑e6 <= 1
 0 <= (π,ρ)5↑e6 <= 1
 0 <= (π,ρ)6↑e6 <= 1
 0 <= (π,ρ)7↑e6 <= 1
 0 <= (π,ρ)8↑e6 <= 1
 0 <= (π,ρ)9↑e6 <= 1
 0 <= (π,ρ)10↑e6 <= 1
 0 <= (π,ρ)11↑e6 <= 1
 0 <= (π,ρ)12↑e6 <= 1
 0 <= (π,ρ)13↑e6 <= 1
 0 <= (π,ρ)14↑e6 <= 1
 0 <= (π,ρ)15↑e6 <= 1
 0 <= (π,ρ)16↑e6 <= 1
 0 <= (π,ρ)17↑e6 <= 1
 0 <= (π,ρ)18↑e7 <= 1
 0 <= vnp3 <= 1
 0 <= (π,ρ)19↑e9 <= 1
 0 <= (π,ρ)20↑e9 <= 1
 0 <= (π,ρ)21↑e9 <= 1
 0 <= (π,ρ)22↑e9 <= 1
 0 <= (π,ρ)23↑e9 <= 1
 0 <= (π,ρ)24↑e9 <= 1
 0 <= (π,ρ)25↑e9 <= 1
 0 <= (π,ρ)26↑e9 <= 1
 0 <= (π,ρ)27↑e9 <= 1
 0 <= (π,ρ)28↑e9 <= 1
 0 <= (π,ρ)29↑e9 <= 1
 0 <= (π,ρ)30↑e9 <= 1
 0 <= (π,ρ)31↑e11 <= 1
 0 <= (π,ρ)32↑e11 <= 1
 0 <= (π,ρ)33↑e12 <= 1
 0 <= (π,ρ)34↑e12 <= 1
 0 <= (π,ρ)35↑e12 <= 1
 0 <= (π,ρ)36↑e12 <= 1
 0 <= (π,ρ)37↑e12 <= 1
 0 <= (π,ρ)38↑e12 <= 1
 0 <= (π,ρ)39↑e12 <= 1
 0 <= (π,ρ)40↑e12 <= 1
 0 <= vnp4 <= 1
 0 <= (π,ρ)41↑e14 <= 1
 0 <= (π,ρ)42↑e14 <= 1
 0 <= (π,ρ)43↑e14 <= 1
 0 <= (π,ρ)44↑e15 <= 1
 0 <= (π,ρ)45↑e17 <= 1
 0 <= (π,ρ)46↑e17 <= 1
Binaries
 vnp1  (π,ρ)0↑e1  (π,ρ)1↑e1  (π,ρ)2↑e2 
 (π,ρ)3↑e4  vnp2  (π,ρ)4↑e6  (π,ρ)5↑e6 
 (π,ρ)6↑e6  (π,ρ)7↑e6  (π,ρ)8↑e6 
 (π,ρ)9↑e6  (π,ρ)10↑e6  (π,ρ)11↑e6 
 (π,ρ)12↑e6  (π,ρ)13↑e6  (π,ρ)14↑e6 
 (π,ρ)15↑e6  (π,ρ)16↑e6  (π,ρ)17↑e6 
 (π,ρ)18↑e7  vnp3  (π,ρ)19↑e9  (π,ρ)20↑e9 
 (π,ρ)21↑e9  (π,ρ)22↑e9  (π,ρ)23↑e9 
 (π,ρ)24↑e9  (π,ρ)25↑e9  (π,ρ)26↑e9 
 (π,ρ)27↑e9  (π,ρ)28↑e9  (π,ρ)29↑e9 
 (π,ρ)30↑e9  (π,ρ)31↑e11  (π,ρ)32↑e11 
 (π,ρ)33↑e12  (π,ρ)34↑e12  (π,ρ)35↑e12 
 (π,ρ)36↑e12  (π,ρ)37↑e12  (π,ρ)38↑e12 
 (π,ρ)39↑e12  (π,ρ)40↑e12  vnp4  (π,ρ)41↑e14 
 (π,ρ)42↑e14  (π,ρ)43↑e14  (π,ρ)44↑e15 
 (π,ρ)45↑e17  (π,ρ)46↑e17 
End
